c DIMACS CNF for Zero-Sum Ramsey R(2K_3, Z_3) on K_8
p cnf 252 2689
1 2 3 0
-1 -2 0
-1 -3 0
-2 -3 0
4 5 6 0
-4 -5 0
-4 -6 0
-5 -6 0
7 8 9 0
-7 -8 0
-7 -9 0
-8 -9 0
10 11 12 0
-10 -11 0
-10 -12 0
-11 -12 0
13 14 15 0
-13 -14 0
-13 -15 0
-14 -15 0
16 17 18 0
-16 -17 0
-16 -18 0
-17 -18 0
19 20 21 0
-19 -20 0
-19 -21 0
-20 -21 0
22 23 24 0
-22 -23 0
-22 -24 0
-23 -24 0
25 26 27 0
-25 -26 0
-25 -27 0
-26 -27 0
28 29 30 0
-28 -29 0
-28 -30 0
-29 -30 0
31 32 33 0
-31 -32 0
-31 -33 0
-32 -33 0
34 35 36 0
-34 -35 0
-34 -36 0
-35 -36 0
37 38 39 0
-37 -38 0
-37 -39 0
-38 -39 0
40 41 42 0
-40 -41 0
-40 -42 0
-41 -42 0
43 44 45 0
-43 -44 0
-43 -45 0
-44 -45 0
46 47 48 0
-46 -47 0
-46 -48 0
-47 -48 0
49 50 51 0
-49 -50 0
-49 -51 0
-50 -51 0
52 53 54 0
-52 -53 0
-52 -54 0
-53 -54 0
55 56 57 0
-55 -56 0
-55 -57 0
-56 -57 0
58 59 60 0
-58 -59 0
-58 -60 0
-59 -60 0
61 62 63 0
-61 -62 0
-61 -63 0
-62 -63 0
64 65 66 0
-64 -65 0
-64 -66 0
-65 -66 0
67 68 69 0
-67 -68 0
-67 -69 0
-68 -69 0
70 71 72 0
-70 -71 0
-70 -72 0
-71 -72 0
73 74 75 0
-73 -74 0
-73 -75 0
-74 -75 0
76 77 78 0
-76 -77 0
-76 -78 0
-77 -78 0
79 80 81 0
-79 -80 0
-79 -81 0
-80 -81 0
82 83 84 0
-82 -83 0
-82 -84 0
-83 -84 0
85 86 87 0
-85 -86 0
-85 -87 0
-86 -87 0
88 89 90 0
-88 -89 0
-88 -90 0
-89 -90 0
91 92 93 0
-91 -92 0
-91 -93 0
-92 -93 0
94 95 96 0
-94 -95 0
-94 -96 0
-95 -96 0
97 98 99 0
-97 -98 0
-97 -99 0
-98 -99 0
100 101 102 0
-100 -101 0
-100 -102 0
-101 -102 0
103 104 105 0
-103 -104 0
-103 -105 0
-104 -105 0
106 107 108 0
-106 -107 0
-106 -108 0
-107 -108 0
109 110 111 0
-109 -110 0
-109 -111 0
-110 -111 0
112 113 114 0
-112 -113 0
-112 -114 0
-113 -114 0
115 116 117 0
-115 -116 0
-115 -117 0
-116 -117 0
118 119 120 0
-118 -119 0
-118 -120 0
-119 -120 0
121 122 123 0
-121 -122 0
-121 -123 0
-122 -123 0
124 125 126 0
-124 -125 0
-124 -126 0
-125 -126 0
127 128 129 0
-127 -128 0
-127 -129 0
-128 -129 0
130 131 132 0
-130 -131 0
-130 -132 0
-131 -132 0
133 134 135 0
-133 -134 0
-133 -135 0
-134 -135 0
136 137 138 0
-136 -137 0
-136 -138 0
-137 -138 0
139 140 141 0
-139 -140 0
-139 -141 0
-140 -141 0
142 143 144 0
-142 -143 0
-142 -144 0
-143 -144 0
145 146 147 0
-145 -146 0
-145 -147 0
-146 -147 0
148 149 150 0
-148 -149 0
-148 -150 0
-149 -150 0
151 152 153 0
-151 -152 0
-151 -153 0
-152 -153 0
154 155 156 0
-154 -155 0
-154 -156 0
-155 -156 0
157 158 159 0
-157 -158 0
-157 -159 0
-158 -159 0
160 161 162 0
-160 -161 0
-160 -162 0
-161 -162 0
163 164 165 0
-163 -164 0
-163 -165 0
-164 -165 0
166 167 168 0
-166 -167 0
-166 -168 0
-167 -168 0
169 170 171 0
-169 -170 0
-169 -171 0
-170 -171 0
172 173 174 0
-172 -173 0
-172 -174 0
-173 -174 0
175 176 177 0
-175 -176 0
-175 -177 0
-176 -177 0
178 179 180 0
-178 -179 0
-178 -180 0
-179 -180 0
181 182 183 0
-181 -182 0
-181 -183 0
-182 -183 0
184 185 186 0
-184 -185 0
-184 -186 0
-185 -186 0
187 188 189 0
-187 -188 0
-187 -189 0
-188 -189 0
190 191 192 0
-190 -191 0
-190 -192 0
-191 -192 0
193 194 195 0
-193 -194 0
-193 -195 0
-194 -195 0
196 197 198 0
-196 -197 0
-196 -198 0
-197 -198 0
199 200 201 0
-199 -200 0
-199 -201 0
-200 -201 0
202 203 204 0
-202 -203 0
-202 -204 0
-203 -204 0
205 206 207 0
-205 -206 0
-205 -207 0
-206 -207 0
208 209 210 0
-208 -209 0
-208 -210 0
-209 -210 0
211 212 213 0
-211 -212 0
-211 -213 0
-212 -213 0
214 215 216 0
-214 -215 0
-214 -216 0
-215 -216 0
217 218 219 0
-217 -218 0
-217 -219 0
-218 -219 0
220 221 222 0
-220 -221 0
-220 -222 0
-221 -222 0
223 224 225 0
-223 -224 0
-223 -225 0
-224 -225 0
226 227 228 0
-226 -227 0
-226 -228 0
-227 -228 0
229 230 231 0
-229 -230 0
-229 -231 0
-230 -231 0
232 233 234 0
-232 -233 0
-232 -234 0
-233 -234 0
235 236 237 0
-235 -236 0
-235 -237 0
-236 -237 0
238 239 240 0
-238 -239 0
-238 -240 0
-239 -240 0
241 242 243 0
-241 -242 0
-241 -243 0
-242 -243 0
244 245 246 0
-244 -245 0
-244 -246 0
-245 -246 0
247 248 249 0
-247 -248 0
-247 -249 0
-248 -249 0
250 251 252 0
-250 -251 0
-250 -252 0
-251 -252 0
-1 -4 -22 85 0
-1 -4 -23 86 0
-1 -4 -24 87 0
-1 -5 -22 86 0
-1 -5 -23 87 0
-1 -5 -24 85 0
-1 -6 -22 87 0
-1 -6 -23 85 0
-1 -6 -24 86 0
-2 -4 -22 86 0
-2 -4 -23 87 0
-2 -4 -24 85 0
-2 -5 -22 87 0
-2 -5 -23 85 0
-2 -5 -24 86 0
-2 -6 -22 85 0
-2 -6 -23 86 0
-2 -6 -24 87 0
-3 -4 -22 87 0
-3 -4 -23 85 0
-3 -4 -24 86 0
-3 -5 -22 85 0
-3 -5 -23 86 0
-3 -5 -24 87 0
-3 -6 -22 86 0
-3 -6 -23 87 0
-3 -6 -24 85 0
-1 -7 -25 88 0
-1 -7 -26 89 0
-1 -7 -27 90 0
-1 -8 -25 89 0
-1 -8 -26 90 0
-1 -8 -27 88 0
-1 -9 -25 90 0
-1 -9 -26 88 0
-1 -9 -27 89 0
-2 -7 -25 89 0
-2 -7 -26 90 0
-2 -7 -27 88 0
-2 -8 -25 90 0
-2 -8 -26 88 0
-2 -8 -27 89 0
-2 -9 -25 88 0
-2 -9 -26 89 0
-2 -9 -27 90 0
-3 -7 -25 90 0
-3 -7 -26 88 0
-3 -7 -27 89 0
-3 -8 -25 88 0
-3 -8 -26 89 0
-3 -8 -27 90 0
-3 -9 -25 89 0
-3 -9 -26 90 0
-3 -9 -27 88 0
-1 -10 -28 91 0
-1 -10 -29 92 0
-1 -10 -30 93 0
-1 -11 -28 92 0
-1 -11 -29 93 0
-1 -11 -30 91 0
-1 -12 -28 93 0
-1 -12 -29 91 0
-1 -12 -30 92 0
-2 -10 -28 92 0
-2 -10 -29 93 0
-2 -10 -30 91 0
-2 -11 -28 93 0
-2 -11 -29 91 0
-2 -11 -30 92 0
-2 -12 -28 91 0
-2 -12 -29 92 0
-2 -12 -30 93 0
-3 -10 -28 93 0
-3 -10 -29 91 0
-3 -10 -30 92 0
-3 -11 -28 91 0
-3 -11 -29 92 0
-3 -11 -30 93 0
-3 -12 -28 92 0
-3 -12 -29 93 0
-3 -12 -30 91 0
-1 -13 -31 94 0
-1 -13 -32 95 0
-1 -13 -33 96 0
-1 -14 -31 95 0
-1 -14 -32 96 0
-1 -14 -33 94 0
-1 -15 -31 96 0
-1 -15 -32 94 0
-1 -15 -33 95 0
-2 -13 -31 95 0
-2 -13 -32 96 0
-2 -13 -33 94 0
-2 -14 -31 96 0
-2 -14 -32 94 0
-2 -14 -33 95 0
-2 -15 -31 94 0
-2 -15 -32 95 0
-2 -15 -33 96 0
-3 -13 -31 96 0
-3 -13 -32 94 0
-3 -13 -33 95 0
-3 -14 -31 94 0
-3 -14 -32 95 0
-3 -14 -33 96 0
-3 -15 -31 95 0
-3 -15 -32 96 0
-3 -15 -33 94 0
-1 -16 -34 97 0
-1 -16 -35 98 0
-1 -16 -36 99 0
-1 -17 -34 98 0
-1 -17 -35 99 0
-1 -17 -36 97 0
-1 -18 -34 99 0
-1 -18 -35 97 0
-1 -18 -36 98 0
-2 -16 -34 98 0
-2 -16 -35 99 0
-2 -16 -36 97 0
-2 -17 -34 99 0
-2 -17 -35 97 0
-2 -17 -36 98 0
-2 -18 -34 97 0
-2 -18 -35 98 0
-2 -18 -36 99 0
-3 -16 -34 99 0
-3 -16 -35 97 0
-3 -16 -36 98 0
-3 -17 -34 97 0
-3 -17 -35 98 0
-3 -17 -36 99 0
-3 -18 -34 98 0
-3 -18 -35 99 0
-3 -18 -36 97 0
-1 -19 -37 100 0
-1 -19 -38 101 0
-1 -19 -39 102 0
-1 -20 -37 101 0
-1 -20 -38 102 0
-1 -20 -39 100 0
-1 -21 -37 102 0
-1 -21 -38 100 0
-1 -21 -39 101 0
-2 -19 -37 101 0
-2 -19 -38 102 0
-2 -19 -39 100 0
-2 -20 -37 102 0
-2 -20 -38 100 0
-2 -20 -39 101 0
-2 -21 -37 100 0
-2 -21 -38 101 0
-2 -21 -39 102 0
-3 -19 -37 102 0
-3 -19 -38 100 0
-3 -19 -39 101 0
-3 -20 -37 100 0
-3 -20 -38 101 0
-3 -20 -39 102 0
-3 -21 -37 101 0
-3 -21 -38 102 0
-3 -21 -39 100 0
-4 -7 -40 103 0
-4 -7 -41 104 0
-4 -7 -42 105 0
-4 -8 -40 104 0
-4 -8 -41 105 0
-4 -8 -42 103 0
-4 -9 -40 105 0
-4 -9 -41 103 0
-4 -9 -42 104 0
-5 -7 -40 104 0
-5 -7 -41 105 0
-5 -7 -42 103 0
-5 -8 -40 105 0
-5 -8 -41 103 0
-5 -8 -42 104 0
-5 -9 -40 103 0
-5 -9 -41 104 0
-5 -9 -42 105 0
-6 -7 -40 105 0
-6 -7 -41 103 0
-6 -7 -42 104 0
-6 -8 -40 103 0
-6 -8 -41 104 0
-6 -8 -42 105 0
-6 -9 -40 104 0
-6 -9 -41 105 0
-6 -9 -42 103 0
-4 -10 -43 106 0
-4 -10 -44 107 0
-4 -10 -45 108 0
-4 -11 -43 107 0
-4 -11 -44 108 0
-4 -11 -45 106 0
-4 -12 -43 108 0
-4 -12 -44 106 0
-4 -12 -45 107 0
-5 -10 -43 107 0
-5 -10 -44 108 0
-5 -10 -45 106 0
-5 -11 -43 108 0
-5 -11 -44 106 0
-5 -11 -45 107 0
-5 -12 -43 106 0
-5 -12 -44 107 0
-5 -12 -45 108 0
-6 -10 -43 108 0
-6 -10 -44 106 0
-6 -10 -45 107 0
-6 -11 -43 106 0
-6 -11 -44 107 0
-6 -11 -45 108 0
-6 -12 -43 107 0
-6 -12 -44 108 0
-6 -12 -45 106 0
-4 -13 -46 109 0
-4 -13 -47 110 0
-4 -13 -48 111 0
-4 -14 -46 110 0
-4 -14 -47 111 0
-4 -14 -48 109 0
-4 -15 -46 111 0
-4 -15 -47 109 0
-4 -15 -48 110 0
-5 -13 -46 110 0
-5 -13 -47 111 0
-5 -13 -48 109 0
-5 -14 -46 111 0
-5 -14 -47 109 0
-5 -14 -48 110 0
-5 -15 -46 109 0
-5 -15 -47 110 0
-5 -15 -48 111 0
-6 -13 -46 111 0
-6 -13 -47 109 0
-6 -13 -48 110 0
-6 -14 -46 109 0
-6 -14 -47 110 0
-6 -14 -48 111 0
-6 -15 -46 110 0
-6 -15 -47 111 0
-6 -15 -48 109 0
-4 -16 -49 112 0
-4 -16 -50 113 0
-4 -16 -51 114 0
-4 -17 -49 113 0
-4 -17 -50 114 0
-4 -17 -51 112 0
-4 -18 -49 114 0
-4 -18 -50 112 0
-4 -18 -51 113 0
-5 -16 -49 113 0
-5 -16 -50 114 0
-5 -16 -51 112 0
-5 -17 -49 114 0
-5 -17 -50 112 0
-5 -17 -51 113 0
-5 -18 -49 112 0
-5 -18 -50 113 0
-5 -18 -51 114 0
-6 -16 -49 114 0
-6 -16 -50 112 0
-6 -16 -51 113 0
-6 -17 -49 112 0
-6 -17 -50 113 0
-6 -17 -51 114 0
-6 -18 -49 113 0
-6 -18 -50 114 0
-6 -18 -51 112 0
-4 -19 -52 115 0
-4 -19 -53 116 0
-4 -19 -54 117 0
-4 -20 -52 116 0
-4 -20 -53 117 0
-4 -20 -54 115 0
-4 -21 -52 117 0
-4 -21 -53 115 0
-4 -21 -54 116 0
-5 -19 -52 116 0
-5 -19 -53 117 0
-5 -19 -54 115 0
-5 -20 -52 117 0
-5 -20 -53 115 0
-5 -20 -54 116 0
-5 -21 -52 115 0
-5 -21 -53 116 0
-5 -21 -54 117 0
-6 -19 -52 117 0
-6 -19 -53 115 0
-6 -19 -54 116 0
-6 -20 -52 115 0
-6 -20 -53 116 0
-6 -20 -54 117 0
-6 -21 -52 116 0
-6 -21 -53 117 0
-6 -21 -54 115 0
-7 -10 -55 118 0
-7 -10 -56 119 0
-7 -10 -57 120 0
-7 -11 -55 119 0
-7 -11 -56 120 0
-7 -11 -57 118 0
-7 -12 -55 120 0
-7 -12 -56 118 0
-7 -12 -57 119 0
-8 -10 -55 119 0
-8 -10 -56 120 0
-8 -10 -57 118 0
-8 -11 -55 120 0
-8 -11 -56 118 0
-8 -11 -57 119 0
-8 -12 -55 118 0
-8 -12 -56 119 0
-8 -12 -57 120 0
-9 -10 -55 120 0
-9 -10 -56 118 0
-9 -10 -57 119 0
-9 -11 -55 118 0
-9 -11 -56 119 0
-9 -11 -57 120 0
-9 -12 -55 119 0
-9 -12 -56 120 0
-9 -12 -57 118 0
-7 -13 -58 121 0
-7 -13 -59 122 0
-7 -13 -60 123 0
-7 -14 -58 122 0
-7 -14 -59 123 0
-7 -14 -60 121 0
-7 -15 -58 123 0
-7 -15 -59 121 0
-7 -15 -60 122 0
-8 -13 -58 122 0
-8 -13 -59 123 0
-8 -13 -60 121 0
-8 -14 -58 123 0
-8 -14 -59 121 0
-8 -14 -60 122 0
-8 -15 -58 121 0
-8 -15 -59 122 0
-8 -15 -60 123 0
-9 -13 -58 123 0
-9 -13 -59 121 0
-9 -13 -60 122 0
-9 -14 -58 121 0
-9 -14 -59 122 0
-9 -14 -60 123 0
-9 -15 -58 122 0
-9 -15 -59 123 0
-9 -15 -60 121 0
-7 -16 -61 124 0
-7 -16 -62 125 0
-7 -16 -63 126 0
-7 -17 -61 125 0
-7 -17 -62 126 0
-7 -17 -63 124 0
-7 -18 -61 126 0
-7 -18 -62 124 0
-7 -18 -63 125 0
-8 -16 -61 125 0
-8 -16 -62 126 0
-8 -16 -63 124 0
-8 -17 -61 126 0
-8 -17 -62 124 0
-8 -17 -63 125 0
-8 -18 -61 124 0
-8 -18 -62 125 0
-8 -18 -63 126 0
-9 -16 -61 126 0
-9 -16 -62 124 0
-9 -16 -63 125 0
-9 -17 -61 124 0
-9 -17 -62 125 0
-9 -17 -63 126 0
-9 -18 -61 125 0
-9 -18 -62 126 0
-9 -18 -63 124 0
-7 -19 -64 127 0
-7 -19 -65 128 0
-7 -19 -66 129 0
-7 -20 -64 128 0
-7 -20 -65 129 0
-7 -20 -66 127 0
-7 -21 -64 129 0
-7 -21 -65 127 0
-7 -21 -66 128 0
-8 -19 -64 128 0
-8 -19 -65 129 0
-8 -19 -66 127 0
-8 -20 -64 129 0
-8 -20 -65 127 0
-8 -20 -66 128 0
-8 -21 -64 127 0
-8 -21 -65 128 0
-8 -21 -66 129 0
-9 -19 -64 129 0
-9 -19 -65 127 0
-9 -19 -66 128 0
-9 -20 -64 127 0
-9 -20 -65 128 0
-9 -20 -66 129 0
-9 -21 -64 128 0
-9 -21 -65 129 0
-9 -21 -66 127 0
-10 -13 -67 130 0
-10 -13 -68 131 0
-10 -13 -69 132 0
-10 -14 -67 131 0
-10 -14 -68 132 0
-10 -14 -69 130 0
-10 -15 -67 132 0
-10 -15 -68 130 0
-10 -15 -69 131 0
-11 -13 -67 131 0
-11 -13 -68 132 0
-11 -13 -69 130 0
-11 -14 -67 132 0
-11 -14 -68 130 0
-11 -14 -69 131 0
-11 -15 -67 130 0
-11 -15 -68 131 0
-11 -15 -69 132 0
-12 -13 -67 132 0
-12 -13 -68 130 0
-12 -13 -69 131 0
-12 -14 -67 130 0
-12 -14 -68 131 0
-12 -14 -69 132 0
-12 -15 -67 131 0
-12 -15 -68 132 0
-12 -15 -69 130 0
-10 -16 -70 133 0
-10 -16 -71 134 0
-10 -16 -72 135 0
-10 -17 -70 134 0
-10 -17 -71 135 0
-10 -17 -72 133 0
-10 -18 -70 135 0
-10 -18 -71 133 0
-10 -18 -72 134 0
-11 -16 -70 134 0
-11 -16 -71 135 0
-11 -16 -72 133 0
-11 -17 -70 135 0
-11 -17 -71 133 0
-11 -17 -72 134 0
-11 -18 -70 133 0
-11 -18 -71 134 0
-11 -18 -72 135 0
-12 -16 -70 135 0
-12 -16 -71 133 0
-12 -16 -72 134 0
-12 -17 -70 133 0
-12 -17 -71 134 0
-12 -17 -72 135 0
-12 -18 -70 134 0
-12 -18 -71 135 0
-12 -18 -72 133 0
-10 -19 -73 136 0
-10 -19 -74 137 0
-10 -19 -75 138 0
-10 -20 -73 137 0
-10 -20 -74 138 0
-10 -20 -75 136 0
-10 -21 -73 138 0
-10 -21 -74 136 0
-10 -21 -75 137 0
-11 -19 -73 137 0
-11 -19 -74 138 0
-11 -19 -75 136 0
-11 -20 -73 138 0
-11 -20 -74 136 0
-11 -20 -75 137 0
-11 -21 -73 136 0
-11 -21 -74 137 0
-11 -21 -75 138 0
-12 -19 -73 138 0
-12 -19 -74 136 0
-12 -19 -75 137 0
-12 -20 -73 136 0
-12 -20 -74 137 0
-12 -20 -75 138 0
-12 -21 -73 137 0
-12 -21 -74 138 0
-12 -21 -75 136 0
-13 -16 -76 139 0
-13 -16 -77 140 0
-13 -16 -78 141 0
-13 -17 -76 140 0
-13 -17 -77 141 0
-13 -17 -78 139 0
-13 -18 -76 141 0
-13 -18 -77 139 0
-13 -18 -78 140 0
-14 -16 -76 140 0
-14 -16 -77 141 0
-14 -16 -78 139 0
-14 -17 -76 141 0
-14 -17 -77 139 0
-14 -17 -78 140 0
-14 -18 -76 139 0
-14 -18 -77 140 0
-14 -18 -78 141 0
-15 -16 -76 141 0
-15 -16 -77 139 0
-15 -16 -78 140 0
-15 -17 -76 139 0
-15 -17 -77 140 0
-15 -17 -78 141 0
-15 -18 -76 140 0
-15 -18 -77 141 0
-15 -18 -78 139 0
-13 -19 -79 142 0
-13 -19 -80 143 0
-13 -19 -81 144 0
-13 -20 -79 143 0
-13 -20 -80 144 0
-13 -20 -81 142 0
-13 -21 -79 144 0
-13 -21 -80 142 0
-13 -21 -81 143 0
-14 -19 -79 143 0
-14 -19 -80 144 0
-14 -19 -81 142 0
-14 -20 -79 144 0
-14 -20 -80 142 0
-14 -20 -81 143 0
-14 -21 -79 142 0
-14 -21 -80 143 0
-14 -21 -81 144 0
-15 -19 -79 144 0
-15 -19 -80 142 0
-15 -19 -81 143 0
-15 -20 -79 142 0
-15 -20 -80 143 0
-15 -20 -81 144 0
-15 -21 -79 143 0
-15 -21 -80 144 0
-15 -21 -81 142 0
-16 -19 -82 145 0
-16 -19 -83 146 0
-16 -19 -84 147 0
-16 -20 -82 146 0
-16 -20 -83 147 0
-16 -20 -84 145 0
-16 -21 -82 147 0
-16 -21 -83 145 0
-16 -21 -84 146 0
-17 -19 -82 146 0
-17 -19 -83 147 0
-17 -19 -84 145 0
-17 -20 -82 147 0
-17 -20 -83 145 0
-17 -20 -84 146 0
-17 -21 -82 145 0
-17 -21 -83 146 0
-17 -21 -84 147 0
-18 -19 -82 147 0
-18 -19 -83 145 0
-18 -19 -84 146 0
-18 -20 -82 145 0
-18 -20 -83 146 0
-18 -20 -84 147 0
-18 -21 -82 146 0
-18 -21 -83 147 0
-18 -21 -84 145 0
-22 -25 -40 148 0
-22 -25 -41 149 0
-22 -25 -42 150 0
-22 -26 -40 149 0
-22 -26 -41 150 0
-22 -26 -42 148 0
-22 -27 -40 150 0
-22 -27 -41 148 0
-22 -27 -42 149 0
-23 -25 -40 149 0
-23 -25 -41 150 0
-23 -25 -42 148 0
-23 -26 -40 150 0
-23 -26 -41 148 0
-23 -26 -42 149 0
-23 -27 -40 148 0
-23 -27 -41 149 0
-23 -27 -42 150 0
-24 -25 -40 150 0
-24 -25 -41 148 0
-24 -25 -42 149 0
-24 -26 -40 148 0
-24 -26 -41 149 0
-24 -26 -42 150 0
-24 -27 -40 149 0
-24 -27 -41 150 0
-24 -27 -42 148 0
-22 -28 -43 151 0
-22 -28 -44 152 0
-22 -28 -45 153 0
-22 -29 -43 152 0
-22 -29 -44 153 0
-22 -29 -45 151 0
-22 -30 -43 153 0
-22 -30 -44 151 0
-22 -30 -45 152 0
-23 -28 -43 152 0
-23 -28 -44 153 0
-23 -28 -45 151 0
-23 -29 -43 153 0
-23 -29 -44 151 0
-23 -29 -45 152 0
-23 -30 -43 151 0
-23 -30 -44 152 0
-23 -30 -45 153 0
-24 -28 -43 153 0
-24 -28 -44 151 0
-24 -28 -45 152 0
-24 -29 -43 151 0
-24 -29 -44 152 0
-24 -29 -45 153 0
-24 -30 -43 152 0
-24 -30 -44 153 0
-24 -30 -45 151 0
-22 -31 -46 154 0
-22 -31 -47 155 0
-22 -31 -48 156 0
-22 -32 -46 155 0
-22 -32 -47 156 0
-22 -32 -48 154 0
-22 -33 -46 156 0
-22 -33 -47 154 0
-22 -33 -48 155 0
-23 -31 -46 155 0
-23 -31 -47 156 0
-23 -31 -48 154 0
-23 -32 -46 156 0
-23 -32 -47 154 0
-23 -32 -48 155 0
-23 -33 -46 154 0
-23 -33 -47 155 0
-23 -33 -48 156 0
-24 -31 -46 156 0
-24 -31 -47 154 0
-24 -31 -48 155 0
-24 -32 -46 154 0
-24 -32 -47 155 0
-24 -32 -48 156 0
-24 -33 -46 155 0
-24 -33 -47 156 0
-24 -33 -48 154 0
-22 -34 -49 157 0
-22 -34 -50 158 0
-22 -34 -51 159 0
-22 -35 -49 158 0
-22 -35 -50 159 0
-22 -35 -51 157 0
-22 -36 -49 159 0
-22 -36 -50 157 0
-22 -36 -51 158 0
-23 -34 -49 158 0
-23 -34 -50 159 0
-23 -34 -51 157 0
-23 -35 -49 159 0
-23 -35 -50 157 0
-23 -35 -51 158 0
-23 -36 -49 157 0
-23 -36 -50 158 0
-23 -36 -51 159 0
-24 -34 -49 159 0
-24 -34 -50 157 0
-24 -34 -51 158 0
-24 -35 -49 157 0
-24 -35 -50 158 0
-24 -35 -51 159 0
-24 -36 -49 158 0
-24 -36 -50 159 0
-24 -36 -51 157 0
-22 -37 -52 160 0
-22 -37 -53 161 0
-22 -37 -54 162 0
-22 -38 -52 161 0
-22 -38 -53 162 0
-22 -38 -54 160 0
-22 -39 -52 162 0
-22 -39 -53 160 0
-22 -39 -54 161 0
-23 -37 -52 161 0
-23 -37 -53 162 0
-23 -37 -54 160 0
-23 -38 -52 162 0
-23 -38 -53 160 0
-23 -38 -54 161 0
-23 -39 -52 160 0
-23 -39 -53 161 0
-23 -39 -54 162 0
-24 -37 -52 162 0
-24 -37 -53 160 0
-24 -37 -54 161 0
-24 -38 -52 160 0
-24 -38 -53 161 0
-24 -38 -54 162 0
-24 -39 -52 161 0
-24 -39 -53 162 0
-24 -39 -54 160 0
-25 -28 -55 163 0
-25 -28 -56 164 0
-25 -28 -57 165 0
-25 -29 -55 164 0
-25 -29 -56 165 0
-25 -29 -57 163 0
-25 -30 -55 165 0
-25 -30 -56 163 0
-25 -30 -57 164 0
-26 -28 -55 164 0
-26 -28 -56 165 0
-26 -28 -57 163 0
-26 -29 -55 165 0
-26 -29 -56 163 0
-26 -29 -57 164 0
-26 -30 -55 163 0
-26 -30 -56 164 0
-26 -30 -57 165 0
-27 -28 -55 165 0
-27 -28 -56 163 0
-27 -28 -57 164 0
-27 -29 -55 163 0
-27 -29 -56 164 0
-27 -29 -57 165 0
-27 -30 -55 164 0
-27 -30 -56 165 0
-27 -30 -57 163 0
-25 -31 -58 166 0
-25 -31 -59 167 0
-25 -31 -60 168 0
-25 -32 -58 167 0
-25 -32 -59 168 0
-25 -32 -60 166 0
-25 -33 -58 168 0
-25 -33 -59 166 0
-25 -33 -60 167 0
-26 -31 -58 167 0
-26 -31 -59 168 0
-26 -31 -60 166 0
-26 -32 -58 168 0
-26 -32 -59 166 0
-26 -32 -60 167 0
-26 -33 -58 166 0
-26 -33 -59 167 0
-26 -33 -60 168 0
-27 -31 -58 168 0
-27 -31 -59 166 0
-27 -31 -60 167 0
-27 -32 -58 166 0
-27 -32 -59 167 0
-27 -32 -60 168 0
-27 -33 -58 167 0
-27 -33 -59 168 0
-27 -33 -60 166 0
-25 -34 -61 169 0
-25 -34 -62 170 0
-25 -34 -63 171 0
-25 -35 -61 170 0
-25 -35 -62 171 0
-25 -35 -63 169 0
-25 -36 -61 171 0
-25 -36 -62 169 0
-25 -36 -63 170 0
-26 -34 -61 170 0
-26 -34 -62 171 0
-26 -34 -63 169 0
-26 -35 -61 171 0
-26 -35 -62 169 0
-26 -35 -63 170 0
-26 -36 -61 169 0
-26 -36 -62 170 0
-26 -36 -63 171 0
-27 -34 -61 171 0
-27 -34 -62 169 0
-27 -34 -63 170 0
-27 -35 -61 169 0
-27 -35 -62 170 0
-27 -35 -63 171 0
-27 -36 -61 170 0
-27 -36 -62 171 0
-27 -36 -63 169 0
-25 -37 -64 172 0
-25 -37 -65 173 0
-25 -37 -66 174 0
-25 -38 -64 173 0
-25 -38 -65 174 0
-25 -38 -66 172 0
-25 -39 -64 174 0
-25 -39 -65 172 0
-25 -39 -66 173 0
-26 -37 -64 173 0
-26 -37 -65 174 0
-26 -37 -66 172 0
-26 -38 -64 174 0
-26 -38 -65 172 0
-26 -38 -66 173 0
-26 -39 -64 172 0
-26 -39 -65 173 0
-26 -39 -66 174 0
-27 -37 -64 174 0
-27 -37 -65 172 0
-27 -37 -66 173 0
-27 -38 -64 172 0
-27 -38 -65 173 0
-27 -38 -66 174 0
-27 -39 -64 173 0
-27 -39 -65 174 0
-27 -39 -66 172 0
-28 -31 -67 175 0
-28 -31 -68 176 0
-28 -31 -69 177 0
-28 -32 -67 176 0
-28 -32 -68 177 0
-28 -32 -69 175 0
-28 -33 -67 177 0
-28 -33 -68 175 0
-28 -33 -69 176 0
-29 -31 -67 176 0
-29 -31 -68 177 0
-29 -31 -69 175 0
-29 -32 -67 177 0
-29 -32 -68 175 0
-29 -32 -69 176 0
-29 -33 -67 175 0
-29 -33 -68 176 0
-29 -33 -69 177 0
-30 -31 -67 177 0
-30 -31 -68 175 0
-30 -31 -69 176 0
-30 -32 -67 175 0
-30 -32 -68 176 0
-30 -32 -69 177 0
-30 -33 -67 176 0
-30 -33 -68 177 0
-30 -33 -69 175 0
-28 -34 -70 178 0
-28 -34 -71 179 0
-28 -34 -72 180 0
-28 -35 -70 179 0
-28 -35 -71 180 0
-28 -35 -72 178 0
-28 -36 -70 180 0
-28 -36 -71 178 0
-28 -36 -72 179 0
-29 -34 -70 179 0
-29 -34 -71 180 0
-29 -34 -72 178 0
-29 -35 -70 180 0
-29 -35 -71 178 0
-29 -35 -72 179 0
-29 -36 -70 178 0
-29 -36 -71 179 0
-29 -36 -72 180 0
-30 -34 -70 180 0
-30 -34 -71 178 0
-30 -34 -72 179 0
-30 -35 -70 178 0
-30 -35 -71 179 0
-30 -35 -72 180 0
-30 -36 -70 179 0
-30 -36 -71 180 0
-30 -36 -72 178 0
-28 -37 -73 181 0
-28 -37 -74 182 0
-28 -37 -75 183 0
-28 -38 -73 182 0
-28 -38 -74 183 0
-28 -38 -75 181 0
-28 -39 -73 183 0
-28 -39 -74 181 0
-28 -39 -75 182 0
-29 -37 -73 182 0
-29 -37 -74 183 0
-29 -37 -75 181 0
-29 -38 -73 183 0
-29 -38 -74 181 0
-29 -38 -75 182 0
-29 -39 -73 181 0
-29 -39 -74 182 0
-29 -39 -75 183 0
-30 -37 -73 183 0
-30 -37 -74 181 0
-30 -37 -75 182 0
-30 -38 -73 181 0
-30 -38 -74 182 0
-30 -38 -75 183 0
-30 -39 -73 182 0
-30 -39 -74 183 0
-30 -39 -75 181 0
-31 -34 -76 184 0
-31 -34 -77 185 0
-31 -34 -78 186 0
-31 -35 -76 185 0
-31 -35 -77 186 0
-31 -35 -78 184 0
-31 -36 -76 186 0
-31 -36 -77 184 0
-31 -36 -78 185 0
-32 -34 -76 185 0
-32 -34 -77 186 0
-32 -34 -78 184 0
-32 -35 -76 186 0
-32 -35 -77 184 0
-32 -35 -78 185 0
-32 -36 -76 184 0
-32 -36 -77 185 0
-32 -36 -78 186 0
-33 -34 -76 186 0
-33 -34 -77 184 0
-33 -34 -78 185 0
-33 -35 -76 184 0
-33 -35 -77 185 0
-33 -35 -78 186 0
-33 -36 -76 185 0
-33 -36 -77 186 0
-33 -36 -78 184 0
-31 -37 -79 187 0
-31 -37 -80 188 0
-31 -37 -81 189 0
-31 -38 -79 188 0
-31 -38 -80 189 0
-31 -38 -81 187 0
-31 -39 -79 189 0
-31 -39 -80 187 0
-31 -39 -81 188 0
-32 -37 -79 188 0
-32 -37 -80 189 0
-32 -37 -81 187 0
-32 -38 -79 189 0
-32 -38 -80 187 0
-32 -38 -81 188 0
-32 -39 -79 187 0
-32 -39 -80 188 0
-32 -39 -81 189 0
-33 -37 -79 189 0
-33 -37 -80 187 0
-33 -37 -81 188 0
-33 -38 -79 187 0
-33 -38 -80 188 0
-33 -38 -81 189 0
-33 -39 -79 188 0
-33 -39 -80 189 0
-33 -39 -81 187 0
-34 -37 -82 190 0
-34 -37 -83 191 0
-34 -37 -84 192 0
-34 -38 -82 191 0
-34 -38 -83 192 0
-34 -38 -84 190 0
-34 -39 -82 192 0
-34 -39 -83 190 0
-34 -39 -84 191 0
-35 -37 -82 191 0
-35 -37 -83 192 0
-35 -37 -84 190 0
-35 -38 -82 192 0
-35 -38 -83 190 0
-35 -38 -84 191 0
-35 -39 -82 190 0
-35 -39 -83 191 0
-35 -39 -84 192 0
-36 -37 -82 192 0
-36 -37 -83 190 0
-36 -37 -84 191 0
-36 -38 -82 190 0
-36 -38 -83 191 0
-36 -38 -84 192 0
-36 -39 -82 191 0
-36 -39 -83 192 0
-36 -39 -84 190 0
-40 -43 -55 193 0
-40 -43 -56 194 0
-40 -43 -57 195 0
-40 -44 -55 194 0
-40 -44 -56 195 0
-40 -44 -57 193 0
-40 -45 -55 195 0
-40 -45 -56 193 0
-40 -45 -57 194 0
-41 -43 -55 194 0
-41 -43 -56 195 0
-41 -43 -57 193 0
-41 -44 -55 195 0
-41 -44 -56 193 0
-41 -44 -57 194 0
-41 -45 -55 193 0
-41 -45 -56 194 0
-41 -45 -57 195 0
-42 -43 -55 195 0
-42 -43 -56 193 0
-42 -43 -57 194 0
-42 -44 -55 193 0
-42 -44 -56 194 0
-42 -44 -57 195 0
-42 -45 -55 194 0
-42 -45 -56 195 0
-42 -45 -57 193 0
-40 -46 -58 196 0
-40 -46 -59 197 0
-40 -46 -60 198 0
-40 -47 -58 197 0
-40 -47 -59 198 0
-40 -47 -60 196 0
-40 -48 -58 198 0
-40 -48 -59 196 0
-40 -48 -60 197 0
-41 -46 -58 197 0
-41 -46 -59 198 0
-41 -46 -60 196 0
-41 -47 -58 198 0
-41 -47 -59 196 0
-41 -47 -60 197 0
-41 -48 -58 196 0
-41 -48 -59 197 0
-41 -48 -60 198 0
-42 -46 -58 198 0
-42 -46 -59 196 0
-42 -46 -60 197 0
-42 -47 -58 196 0
-42 -47 -59 197 0
-42 -47 -60 198 0
-42 -48 -58 197 0
-42 -48 -59 198 0
-42 -48 -60 196 0
-40 -49 -61 199 0
-40 -49 -62 200 0
-40 -49 -63 201 0
-40 -50 -61 200 0
-40 -50 -62 201 0
-40 -50 -63 199 0
-40 -51 -61 201 0
-40 -51 -62 199 0
-40 -51 -63 200 0
-41 -49 -61 200 0
-41 -49 -62 201 0
-41 -49 -63 199 0
-41 -50 -61 201 0
-41 -50 -62 199 0
-41 -50 -63 200 0
-41 -51 -61 199 0
-41 -51 -62 200 0
-41 -51 -63 201 0
-42 -49 -61 201 0
-42 -49 -62 199 0
-42 -49 -63 200 0
-42 -50 -61 199 0
-42 -50 -62 200 0
-42 -50 -63 201 0
-42 -51 -61 200 0
-42 -51 -62 201 0
-42 -51 -63 199 0
-40 -52 -64 202 0
-40 -52 -65 203 0
-40 -52 -66 204 0
-40 -53 -64 203 0
-40 -53 -65 204 0
-40 -53 -66 202 0
-40 -54 -64 204 0
-40 -54 -65 202 0
-40 -54 -66 203 0
-41 -52 -64 203 0
-41 -52 -65 204 0
-41 -52 -66 202 0
-41 -53 -64 204 0
-41 -53 -65 202 0
-41 -53 -66 203 0
-41 -54 -64 202 0
-41 -54 -65 203 0
-41 -54 -66 204 0
-42 -52 -64 204 0
-42 -52 -65 202 0
-42 -52 -66 203 0
-42 -53 -64 202 0
-42 -53 -65 203 0
-42 -53 -66 204 0
-42 -54 -64 203 0
-42 -54 -65 204 0
-42 -54 -66 202 0
-43 -46 -67 205 0
-43 -46 -68 206 0
-43 -46 -69 207 0
-43 -47 -67 206 0
-43 -47 -68 207 0
-43 -47 -69 205 0
-43 -48 -67 207 0
-43 -48 -68 205 0
-43 -48 -69 206 0
-44 -46 -67 206 0
-44 -46 -68 207 0
-44 -46 -69 205 0
-44 -47 -67 207 0
-44 -47 -68 205 0
-44 -47 -69 206 0
-44 -48 -67 205 0
-44 -48 -68 206 0
-44 -48 -69 207 0
-45 -46 -67 207 0
-45 -46 -68 205 0
-45 -46 -69 206 0
-45 -47 -67 205 0
-45 -47 -68 206 0
-45 -47 -69 207 0
-45 -48 -67 206 0
-45 -48 -68 207 0
-45 -48 -69 205 0
-43 -49 -70 208 0
-43 -49 -71 209 0
-43 -49 -72 210 0
-43 -50 -70 209 0
-43 -50 -71 210 0
-43 -50 -72 208 0
-43 -51 -70 210 0
-43 -51 -71 208 0
-43 -51 -72 209 0
-44 -49 -70 209 0
-44 -49 -71 210 0
-44 -49 -72 208 0
-44 -50 -70 210 0
-44 -50 -71 208 0
-44 -50 -72 209 0
-44 -51 -70 208 0
-44 -51 -71 209 0
-44 -51 -72 210 0
-45 -49 -70 210 0
-45 -49 -71 208 0
-45 -49 -72 209 0
-45 -50 -70 208 0
-45 -50 -71 209 0
-45 -50 -72 210 0
-45 -51 -70 209 0
-45 -51 -71 210 0
-45 -51 -72 208 0
-43 -52 -73 211 0
-43 -52 -74 212 0
-43 -52 -75 213 0
-43 -53 -73 212 0
-43 -53 -74 213 0
-43 -53 -75 211 0
-43 -54 -73 213 0
-43 -54 -74 211 0
-43 -54 -75 212 0
-44 -52 -73 212 0
-44 -52 -74 213 0
-44 -52 -75 211 0
-44 -53 -73 213 0
-44 -53 -74 211 0
-44 -53 -75 212 0
-44 -54 -73 211 0
-44 -54 -74 212 0
-44 -54 -75 213 0
-45 -52 -73 213 0
-45 -52 -74 211 0
-45 -52 -75 212 0
-45 -53 -73 211 0
-45 -53 -74 212 0
-45 -53 -75 213 0
-45 -54 -73 212 0
-45 -54 -74 213 0
-45 -54 -75 211 0
-46 -49 -76 214 0
-46 -49 -77 215 0
-46 -49 -78 216 0
-46 -50 -76 215 0
-46 -50 -77 216 0
-46 -50 -78 214 0
-46 -51 -76 216 0
-46 -51 -77 214 0
-46 -51 -78 215 0
-47 -49 -76 215 0
-47 -49 -77 216 0
-47 -49 -78 214 0
-47 -50 -76 216 0
-47 -50 -77 214 0
-47 -50 -78 215 0
-47 -51 -76 214 0
-47 -51 -77 215 0
-47 -51 -78 216 0
-48 -49 -76 216 0
-48 -49 -77 214 0
-48 -49 -78 215 0
-48 -50 -76 214 0
-48 -50 -77 215 0
-48 -50 -78 216 0
-48 -51 -76 215 0
-48 -51 -77 216 0
-48 -51 -78 214 0
-46 -52 -79 217 0
-46 -52 -80 218 0
-46 -52 -81 219 0
-46 -53 -79 218 0
-46 -53 -80 219 0
-46 -53 -81 217 0
-46 -54 -79 219 0
-46 -54 -80 217 0
-46 -54 -81 218 0
-47 -52 -79 218 0
-47 -52 -80 219 0
-47 -52 -81 217 0
-47 -53 -79 219 0
-47 -53 -80 217 0
-47 -53 -81 218 0
-47 -54 -79 217 0
-47 -54 -80 218 0
-47 -54 -81 219 0
-48 -52 -79 219 0
-48 -52 -80 217 0
-48 -52 -81 218 0
-48 -53 -79 217 0
-48 -53 -80 218 0
-48 -53 -81 219 0
-48 -54 -79 218 0
-48 -54 -80 219 0
-48 -54 -81 217 0
-49 -52 -82 220 0
-49 -52 -83 221 0
-49 -52 -84 222 0
-49 -53 -82 221 0
-49 -53 -83 222 0
-49 -53 -84 220 0
-49 -54 -82 222 0
-49 -54 -83 220 0
-49 -54 -84 221 0
-50 -52 -82 221 0
-50 -52 -83 222 0
-50 -52 -84 220 0
-50 -53 -82 222 0
-50 -53 -83 220 0
-50 -53 -84 221 0
-50 -54 -82 220 0
-50 -54 -83 221 0
-50 -54 -84 222 0
-51 -52 -82 222 0
-51 -52 -83 220 0
-51 -52 -84 221 0
-51 -53 -82 220 0
-51 -53 -83 221 0
-51 -53 -84 222 0
-51 -54 -82 221 0
-51 -54 -83 222 0
-51 -54 -84 220 0
-55 -58 -67 223 0
-55 -58 -68 224 0
-55 -58 -69 225 0
-55 -59 -67 224 0
-55 -59 -68 225 0
-55 -59 -69 223 0
-55 -60 -67 225 0
-55 -60 -68 223 0
-55 -60 -69 224 0
-56 -58 -67 224 0
-56 -58 -68 225 0
-56 -58 -69 223 0
-56 -59 -67 225 0
-56 -59 -68 223 0
-56 -59 -69 224 0
-56 -60 -67 223 0
-56 -60 -68 224 0
-56 -60 -69 225 0
-57 -58 -67 225 0
-57 -58 -68 223 0
-57 -58 -69 224 0
-57 -59 -67 223 0
-57 -59 -68 224 0
-57 -59 -69 225 0
-57 -60 -67 224 0
-57 -60 -68 225 0
-57 -60 -69 223 0
-55 -61 -70 226 0
-55 -61 -71 227 0
-55 -61 -72 228 0
-55 -62 -70 227 0
-55 -62 -71 228 0
-55 -62 -72 226 0
-55 -63 -70 228 0
-55 -63 -71 226 0
-55 -63 -72 227 0
-56 -61 -70 227 0
-56 -61 -71 228 0
-56 -61 -72 226 0
-56 -62 -70 228 0
-56 -62 -71 226 0
-56 -62 -72 227 0
-56 -63 -70 226 0
-56 -63 -71 227 0
-56 -63 -72 228 0
-57 -61 -70 228 0
-57 -61 -71 226 0
-57 -61 -72 227 0
-57 -62 -70 226 0
-57 -62 -71 227 0
-57 -62 -72 228 0
-57 -63 -70 227 0
-57 -63 -71 228 0
-57 -63 -72 226 0
-55 -64 -73 229 0
-55 -64 -74 230 0
-55 -64 -75 231 0
-55 -65 -73 230 0
-55 -65 -74 231 0
-55 -65 -75 229 0
-55 -66 -73 231 0
-55 -66 -74 229 0
-55 -66 -75 230 0
-56 -64 -73 230 0
-56 -64 -74 231 0
-56 -64 -75 229 0
-56 -65 -73 231 0
-56 -65 -74 229 0
-56 -65 -75 230 0
-56 -66 -73 229 0
-56 -66 -74 230 0
-56 -66 -75 231 0
-57 -64 -73 231 0
-57 -64 -74 229 0
-57 -64 -75 230 0
-57 -65 -73 229 0
-57 -65 -74 230 0
-57 -65 -75 231 0
-57 -66 -73 230 0
-57 -66 -74 231 0
-57 -66 -75 229 0
-58 -61 -76 232 0
-58 -61 -77 233 0
-58 -61 -78 234 0
-58 -62 -76 233 0
-58 -62 -77 234 0
-58 -62 -78 232 0
-58 -63 -76 234 0
-58 -63 -77 232 0
-58 -63 -78 233 0
-59 -61 -76 233 0
-59 -61 -77 234 0
-59 -61 -78 232 0
-59 -62 -76 234 0
-59 -62 -77 232 0
-59 -62 -78 233 0
-59 -63 -76 232 0
-59 -63 -77 233 0
-59 -63 -78 234 0
-60 -61 -76 234 0
-60 -61 -77 232 0
-60 -61 -78 233 0
-60 -62 -76 232 0
-60 -62 -77 233 0
-60 -62 -78 234 0
-60 -63 -76 233 0
-60 -63 -77 234 0
-60 -63 -78 232 0
-58 -64 -79 235 0
-58 -64 -80 236 0
-58 -64 -81 237 0
-58 -65 -79 236 0
-58 -65 -80 237 0
-58 -65 -81 235 0
-58 -66 -79 237 0
-58 -66 -80 235 0
-58 -66 -81 236 0
-59 -64 -79 236 0
-59 -64 -80 237 0
-59 -64 -81 235 0
-59 -65 -79 237 0
-59 -65 -80 235 0
-59 -65 -81 236 0
-59 -66 -79 235 0
-59 -66 -80 236 0
-59 -66 -81 237 0
-60 -64 -79 237 0
-60 -64 -80 235 0
-60 -64 -81 236 0
-60 -65 -79 235 0
-60 -65 -80 236 0
-60 -65 -81 237 0
-60 -66 -79 236 0
-60 -66 -80 237 0
-60 -66 -81 235 0
-61 -64 -82 238 0
-61 -64 -83 239 0
-61 -64 -84 240 0
-61 -65 -82 239 0
-61 -65 -83 240 0
-61 -65 -84 238 0
-61 -66 -82 240 0
-61 -66 -83 238 0
-61 -66 -84 239 0
-62 -64 -82 239 0
-62 -64 -83 240 0
-62 -64 -84 238 0
-62 -65 -82 240 0
-62 -65 -83 238 0
-62 -65 -84 239 0
-62 -66 -82 238 0
-62 -66 -83 239 0
-62 -66 -84 240 0
-63 -64 -82 240 0
-63 -64 -83 238 0
-63 -64 -84 239 0
-63 -65 -82 238 0
-63 -65 -83 239 0
-63 -65 -84 240 0
-63 -66 -82 239 0
-63 -66 -83 240 0
-63 -66 -84 238 0
-67 -70 -76 241 0
-67 -70 -77 242 0
-67 -70 -78 243 0
-67 -71 -76 242 0
-67 -71 -77 243 0
-67 -71 -78 241 0
-67 -72 -76 243 0
-67 -72 -77 241 0
-67 -72 -78 242 0
-68 -70 -76 242 0
-68 -70 -77 243 0
-68 -70 -78 241 0
-68 -71 -76 243 0
-68 -71 -77 241 0
-68 -71 -78 242 0
-68 -72 -76 241 0
-68 -72 -77 242 0
-68 -72 -78 243 0
-69 -70 -76 243 0
-69 -70 -77 241 0
-69 -70 -78 242 0
-69 -71 -76 241 0
-69 -71 -77 242 0
-69 -71 -78 243 0
-69 -72 -76 242 0
-69 -72 -77 243 0
-69 -72 -78 241 0
-67 -73 -79 244 0
-67 -73 -80 245 0
-67 -73 -81 246 0
-67 -74 -79 245 0
-67 -74 -80 246 0
-67 -74 -81 244 0
-67 -75 -79 246 0
-67 -75 -80 244 0
-67 -75 -81 245 0
-68 -73 -79 245 0
-68 -73 -80 246 0
-68 -73 -81 244 0
-68 -74 -79 246 0
-68 -74 -80 244 0
-68 -74 -81 245 0
-68 -75 -79 244 0
-68 -75 -80 245 0
-68 -75 -81 246 0
-69 -73 -79 246 0
-69 -73 -80 244 0
-69 -73 -81 245 0
-69 -74 -79 244 0
-69 -74 -80 245 0
-69 -74 -81 246 0
-69 -75 -79 245 0
-69 -75 -80 246 0
-69 -75 -81 244 0
-70 -73 -82 247 0
-70 -73 -83 248 0
-70 -73 -84 249 0
-70 -74 -82 248 0
-70 -74 -83 249 0
-70 -74 -84 247 0
-70 -75 -82 249 0
-70 -75 -83 247 0
-70 -75 -84 248 0
-71 -73 -82 248 0
-71 -73 -83 249 0
-71 -73 -84 247 0
-71 -74 -82 249 0
-71 -74 -83 247 0
-71 -74 -84 248 0
-71 -75 -82 247 0
-71 -75 -83 248 0
-71 -75 -84 249 0
-72 -73 -82 249 0
-72 -73 -83 247 0
-72 -73 -84 248 0
-72 -74 -82 247 0
-72 -74 -83 248 0
-72 -74 -84 249 0
-72 -75 -82 248 0
-72 -75 -83 249 0
-72 -75 -84 247 0
-76 -79 -82 250 0
-76 -79 -83 251 0
-76 -79 -84 252 0
-76 -80 -82 251 0
-76 -80 -83 252 0
-76 -80 -84 250 0
-76 -81 -82 252 0
-76 -81 -83 250 0
-76 -81 -84 251 0
-77 -79 -82 251 0
-77 -79 -83 252 0
-77 -79 -84 250 0
-77 -80 -82 252 0
-77 -80 -83 250 0
-77 -80 -84 251 0
-77 -81 -82 250 0
-77 -81 -83 251 0
-77 -81 -84 252 0
-78 -79 -82 252 0
-78 -79 -83 250 0
-78 -79 -84 251 0
-78 -80 -82 250 0
-78 -80 -83 251 0
-78 -80 -84 252 0
-78 -81 -82 251 0
-78 -81 -83 252 0
-78 -81 -84 250 0
-85 -223 0
-86 -225 0
-87 -224 0
-85 -226 0
-86 -228 0
-87 -227 0
-85 -229 0
-86 -231 0
-87 -230 0
-85 -232 0
-86 -234 0
-87 -233 0
-85 -235 0
-86 -237 0
-87 -236 0
-85 -238 0
-86 -240 0
-87 -239 0
-85 -241 0
-86 -243 0
-87 -242 0
-85 -244 0
-86 -246 0
-87 -245 0
-85 -247 0
-86 -249 0
-87 -248 0
-85 -250 0
-86 -252 0
-87 -251 0
-88 -205 0
-89 -207 0
-90 -206 0
-88 -208 0
-89 -210 0
-90 -209 0
-88 -211 0
-89 -213 0
-90 -212 0
-88 -214 0
-89 -216 0
-90 -215 0
-88 -217 0
-89 -219 0
-90 -218 0
-88 -220 0
-89 -222 0
-90 -221 0
-88 -241 0
-89 -243 0
-90 -242 0
-88 -244 0
-89 -246 0
-90 -245 0
-88 -247 0
-89 -249 0
-90 -248 0
-88 -250 0
-89 -252 0
-90 -251 0
-91 -196 0
-92 -198 0
-93 -197 0
-91 -199 0
-92 -201 0
-93 -200 0
-91 -202 0
-92 -204 0
-93 -203 0
-91 -214 0
-92 -216 0
-93 -215 0
-91 -217 0
-92 -219 0
-93 -218 0
-91 -220 0
-92 -222 0
-93 -221 0
-91 -232 0
-92 -234 0
-93 -233 0
-91 -235 0
-92 -237 0
-93 -236 0
-91 -238 0
-92 -240 0
-93 -239 0
-91 -250 0
-92 -252 0
-93 -251 0
-94 -193 0
-95 -195 0
-96 -194 0
-94 -199 0
-95 -201 0
-96 -200 0
-94 -202 0
-95 -204 0
-96 -203 0
-94 -208 0
-95 -210 0
-96 -209 0
-94 -211 0
-95 -213 0
-96 -212 0
-94 -220 0
-95 -222 0
-96 -221 0
-94 -226 0
-95 -228 0
-96 -227 0
-94 -229 0
-95 -231 0
-96 -230 0
-94 -238 0
-95 -240 0
-96 -239 0
-94 -247 0
-95 -249 0
-96 -248 0
-97 -193 0
-98 -195 0
-99 -194 0
-97 -196 0
-98 -198 0
-99 -197 0
-97 -202 0
-98 -204 0
-99 -203 0
-97 -205 0
-98 -207 0
-99 -206 0
-97 -211 0
-98 -213 0
-99 -212 0
-97 -217 0
-98 -219 0
-99 -218 0
-97 -223 0
-98 -225 0
-99 -224 0
-97 -229 0
-98 -231 0
-99 -230 0
-97 -235 0
-98 -237 0
-99 -236 0
-97 -244 0
-98 -246 0
-99 -245 0
-100 -193 0
-101 -195 0
-102 -194 0
-100 -196 0
-101 -198 0
-102 -197 0
-100 -199 0
-101 -201 0
-102 -200 0
-100 -205 0
-101 -207 0
-102 -206 0
-100 -208 0
-101 -210 0
-102 -209 0
-100 -214 0
-101 -216 0
-102 -215 0
-100 -223 0
-101 -225 0
-102 -224 0
-100 -226 0
-101 -228 0
-102 -227 0
-100 -232 0
-101 -234 0
-102 -233 0
-100 -241 0
-101 -243 0
-102 -242 0
-103 -175 0
-104 -177 0
-105 -176 0
-103 -178 0
-104 -180 0
-105 -179 0
-103 -181 0
-104 -183 0
-105 -182 0
-103 -184 0
-104 -186 0
-105 -185 0
-103 -187 0
-104 -189 0
-105 -188 0
-103 -190 0
-104 -192 0
-105 -191 0
-103 -241 0
-104 -243 0
-105 -242 0
-103 -244 0
-104 -246 0
-105 -245 0
-103 -247 0
-104 -249 0
-105 -248 0
-103 -250 0
-104 -252 0
-105 -251 0
-106 -166 0
-107 -168 0
-108 -167 0
-106 -169 0
-107 -171 0
-108 -170 0
-106 -172 0
-107 -174 0
-108 -173 0
-106 -184 0
-107 -186 0
-108 -185 0
-106 -187 0
-107 -189 0
-108 -188 0
-106 -190 0
-107 -192 0
-108 -191 0
-106 -232 0
-107 -234 0
-108 -233 0
-106 -235 0
-107 -237 0
-108 -236 0
-106 -238 0
-107 -240 0
-108 -239 0
-106 -250 0
-107 -252 0
-108 -251 0
-109 -163 0
-110 -165 0
-111 -164 0
-109 -169 0
-110 -171 0
-111 -170 0
-109 -172 0
-110 -174 0
-111 -173 0
-109 -178 0
-110 -180 0
-111 -179 0
-109 -181 0
-110 -183 0
-111 -182 0
-109 -190 0
-110 -192 0
-111 -191 0
-109 -226 0
-110 -228 0
-111 -227 0
-109 -229 0
-110 -231 0
-111 -230 0
-109 -238 0
-110 -240 0
-111 -239 0
-109 -247 0
-110 -249 0
-111 -248 0
-112 -163 0
-113 -165 0
-114 -164 0
-112 -166 0
-113 -168 0
-114 -167 0
-112 -172 0
-113 -174 0
-114 -173 0
-112 -175 0
-113 -177 0
-114 -176 0
-112 -181 0
-113 -183 0
-114 -182 0
-112 -187 0
-113 -189 0
-114 -188 0
-112 -223 0
-113 -225 0
-114 -224 0
-112 -229 0
-113 -231 0
-114 -230 0
-112 -235 0
-113 -237 0
-114 -236 0
-112 -244 0
-113 -246 0
-114 -245 0
-115 -163 0
-116 -165 0
-117 -164 0
-115 -166 0
-116 -168 0
-117 -167 0
-115 -169 0
-116 -171 0
-117 -170 0
-115 -175 0
-116 -177 0
-117 -176 0
-115 -178 0
-116 -180 0
-117 -179 0
-115 -184 0
-116 -186 0
-117 -185 0
-115 -223 0
-116 -225 0
-117 -224 0
-115 -226 0
-116 -228 0
-117 -227 0
-115 -232 0
-116 -234 0
-117 -233 0
-115 -241 0
-116 -243 0
-117 -242 0
-118 -154 0
-119 -156 0
-120 -155 0
-118 -157 0
-119 -159 0
-120 -158 0
-118 -160 0
-119 -162 0
-120 -161 0
-118 -184 0
-119 -186 0
-120 -185 0
-118 -187 0
-119 -189 0
-120 -188 0
-118 -190 0
-119 -192 0
-120 -191 0
-118 -214 0
-119 -216 0
-120 -215 0
-118 -217 0
-119 -219 0
-120 -218 0
-118 -220 0
-119 -222 0
-120 -221 0
-118 -250 0
-119 -252 0
-120 -251 0
-121 -151 0
-122 -153 0
-123 -152 0
-121 -157 0
-122 -159 0
-123 -158 0
-121 -160 0
-122 -162 0
-123 -161 0
-121 -178 0
-122 -180 0
-123 -179 0
-121 -181 0
-122 -183 0
-123 -182 0
-121 -190 0
-122 -192 0
-123 -191 0
-121 -208 0
-122 -210 0
-123 -209 0
-121 -211 0
-122 -213 0
-123 -212 0
-121 -220 0
-122 -222 0
-123 -221 0
-121 -247 0
-122 -249 0
-123 -248 0
-124 -151 0
-125 -153 0
-126 -152 0
-124 -154 0
-125 -156 0
-126 -155 0
-124 -160 0
-125 -162 0
-126 -161 0
-124 -175 0
-125 -177 0
-126 -176 0
-124 -181 0
-125 -183 0
-126 -182 0
-124 -187 0
-125 -189 0
-126 -188 0
-124 -205 0
-125 -207 0
-126 -206 0
-124 -211 0
-125 -213 0
-126 -212 0
-124 -217 0
-125 -219 0
-126 -218 0
-124 -244 0
-125 -246 0
-126 -245 0
-127 -151 0
-128 -153 0
-129 -152 0
-127 -154 0
-128 -156 0
-129 -155 0
-127 -157 0
-128 -159 0
-129 -158 0
-127 -175 0
-128 -177 0
-129 -176 0
-127 -178 0
-128 -180 0
-129 -179 0
-127 -184 0
-128 -186 0
-129 -185 0
-127 -205 0
-128 -207 0
-129 -206 0
-127 -208 0
-128 -210 0
-129 -209 0
-127 -214 0
-128 -216 0
-129 -215 0
-127 -241 0
-128 -243 0
-129 -242 0
-130 -148 0
-131 -150 0
-132 -149 0
-130 -157 0
-131 -159 0
-132 -158 0
-130 -160 0
-131 -162 0
-132 -161 0
-130 -169 0
-131 -171 0
-132 -170 0
-130 -172 0
-131 -174 0
-132 -173 0
-130 -190 0
-131 -192 0
-132 -191 0
-130 -199 0
-131 -201 0
-132 -200 0
-130 -202 0
-131 -204 0
-132 -203 0
-130 -220 0
-131 -222 0
-132 -221 0
-130 -238 0
-131 -240 0
-132 -239 0
-133 -148 0
-134 -150 0
-135 -149 0
-133 -154 0
-134 -156 0
-135 -155 0
-133 -160 0
-134 -162 0
-135 -161 0
-133 -166 0
-134 -168 0
-135 -167 0
-133 -172 0
-134 -174 0
-135 -173 0
-133 -187 0
-134 -189 0
-135 -188 0
-133 -196 0
-134 -198 0
-135 -197 0
-133 -202 0
-134 -204 0
-135 -203 0
-133 -217 0
-134 -219 0
-135 -218 0
-133 -235 0
-134 -237 0
-135 -236 0
-136 -148 0
-137 -150 0
-138 -149 0
-136 -154 0
-137 -156 0
-138 -155 0
-136 -157 0
-137 -159 0
-138 -158 0
-136 -166 0
-137 -168 0
-138 -167 0
-136 -169 0
-137 -171 0
-138 -170 0
-136 -184 0
-137 -186 0
-138 -185 0
-136 -196 0
-137 -198 0
-138 -197 0
-136 -199 0
-137 -201 0
-138 -200 0
-136 -214 0
-137 -216 0
-138 -215 0
-136 -232 0
-137 -234 0
-138 -233 0
-139 -148 0
-140 -150 0
-141 -149 0
-139 -151 0
-140 -153 0
-141 -152 0
-139 -160 0
-140 -162 0
-141 -161 0
-139 -163 0
-140 -165 0
-141 -164 0
-139 -172 0
-140 -174 0
-141 -173 0
-139 -181 0
-140 -183 0
-141 -182 0
-139 -193 0
-140 -195 0
-141 -194 0
-139 -202 0
-140 -204 0
-141 -203 0
-139 -211 0
-140 -213 0
-141 -212 0
-139 -229 0
-140 -231 0
-141 -230 0
-142 -148 0
-143 -150 0
-144 -149 0
-142 -151 0
-143 -153 0
-144 -152 0
-142 -157 0
-143 -159 0
-144 -158 0
-142 -163 0
-143 -165 0
-144 -164 0
-142 -169 0
-143 -171 0
-144 -170 0
-142 -178 0
-143 -180 0
-144 -179 0
-142 -193 0
-143 -195 0
-144 -194 0
-142 -199 0
-143 -201 0
-144 -200 0
-142 -208 0
-143 -210 0
-144 -209 0
-142 -226 0
-143 -228 0
-144 -227 0
-145 -148 0
-146 -150 0
-147 -149 0
-145 -151 0
-146 -153 0
-147 -152 0
-145 -154 0
-146 -156 0
-147 -155 0
-145 -163 0
-146 -165 0
-147 -164 0
-145 -166 0
-146 -168 0
-147 -167 0
-145 -175 0
-146 -177 0
-147 -176 0
-145 -193 0
-146 -195 0
-147 -194 0
-145 -196 0
-146 -198 0
-147 -197 0
-145 -205 0
-146 -207 0
-147 -206 0
-145 -223 0
-146 -225 0
-147 -224 0
-148 -241 0
-149 -243 0
-150 -242 0
-148 -244 0
-149 -246 0
-150 -245 0
-148 -247 0
-149 -249 0
-150 -248 0
-148 -250 0
-149 -252 0
-150 -251 0
-151 -232 0
-152 -234 0
-153 -233 0
-151 -235 0
-152 -237 0
-153 -236 0
-151 -238 0
-152 -240 0
-153 -239 0
-151 -250 0
-152 -252 0
-153 -251 0
-154 -226 0
-155 -228 0
-156 -227 0
-154 -229 0
-155 -231 0
-156 -230 0
-154 -238 0
-155 -240 0
-156 -239 0
-154 -247 0
-155 -249 0
-156 -248 0
-157 -223 0
-158 -225 0
-159 -224 0
-157 -229 0
-158 -231 0
-159 -230 0
-157 -235 0
-158 -237 0
-159 -236 0
-157 -244 0
-158 -246 0
-159 -245 0
-160 -223 0
-161 -225 0
-162 -224 0
-160 -226 0
-161 -228 0
-162 -227 0
-160 -232 0
-161 -234 0
-162 -233 0
-160 -241 0
-161 -243 0
-162 -242 0
-163 -214 0
-164 -216 0
-165 -215 0
-163 -217 0
-164 -219 0
-165 -218 0
-163 -220 0
-164 -222 0
-165 -221 0
-163 -250 0
-164 -252 0
-165 -251 0
-166 -208 0
-167 -210 0
-168 -209 0
-166 -211 0
-167 -213 0
-168 -212 0
-166 -220 0
-167 -222 0
-168 -221 0
-166 -247 0
-167 -249 0
-168 -248 0
-169 -205 0
-170 -207 0
-171 -206 0
-169 -211 0
-170 -213 0
-171 -212 0
-169 -217 0
-170 -219 0
-171 -218 0
-169 -244 0
-170 -246 0
-171 -245 0
-172 -205 0
-173 -207 0
-174 -206 0
-172 -208 0
-173 -210 0
-174 -209 0
-172 -214 0
-173 -216 0
-174 -215 0
-172 -241 0
-173 -243 0
-174 -242 0
-175 -199 0
-176 -201 0
-177 -200 0
-175 -202 0
-176 -204 0
-177 -203 0
-175 -220 0
-176 -222 0
-177 -221 0
-175 -238 0
-176 -240 0
-177 -239 0
-178 -196 0
-179 -198 0
-180 -197 0
-178 -202 0
-179 -204 0
-180 -203 0
-178 -217 0
-179 -219 0
-180 -218 0
-178 -235 0
-179 -237 0
-180 -236 0
-181 -196 0
-182 -198 0
-183 -197 0
-181 -199 0
-182 -201 0
-183 -200 0
-181 -214 0
-182 -216 0
-183 -215 0
-181 -232 0
-182 -234 0
-183 -233 0
-184 -193 0
-185 -195 0
-186 -194 0
-184 -202 0
-185 -204 0
-186 -203 0
-184 -211 0
-185 -213 0
-186 -212 0
-184 -229 0
-185 -231 0
-186 -230 0
-187 -193 0
-188 -195 0
-189 -194 0
-187 -199 0
-188 -201 0
-189 -200 0
-187 -208 0
-188 -210 0
-189 -209 0
-187 -226 0
-188 -228 0
-189 -227 0
-190 -193 0
-191 -195 0
-192 -194 0
-190 -196 0
-191 -198 0
-192 -197 0
-190 -205 0
-191 -207 0
-192 -206 0
-190 -223 0
-191 -225 0
-192 -224 0
-193 -250 0
-194 -252 0
-195 -251 0
-196 -247 0
-197 -249 0
-198 -248 0
-199 -244 0
-200 -246 0
-201 -245 0
-202 -241 0
-203 -243 0
-204 -242 0
-205 -238 0
-206 -240 0
-207 -239 0
-208 -235 0
-209 -237 0
-210 -236 0
-211 -232 0
-212 -234 0
-213 -233 0
-214 -229 0
-215 -231 0
-216 -230 0
-217 -226 0
-218 -228 0
-219 -227 0
-220 -223 0
-221 -225 0
-222 -224 0
1 0
